Route #1: 77 40 26 11 53 68 66 2
Route #2: 3 20 54 31 76 32 73 65
Route #3: 72 38 69 43 52 1
Route #4: 10 9 14 36 4 48 6 62
Route #5: 17 15 45 46 34 8 67 21 24
Route #6: 5 30 70 41 28 74 50
Route #7: 58 51 12 22 71 7 75 49 47
Route #8: 19 33 35 59 55 39 13 61
Route #9: 57 37 29 27 63
Route #10: 56 23 44 25 60 42 18 16 64
cost 1576.07177734375